\* Source Pyomo model name=unknown *\

min 
x34:
+0 x11
+0 x12
+0 x13
+0 x14
+0 x15
+0 x16
+0 x17
+0 x18
+0 x19
+0 x20
+0.02 x21
+0 x22
+0.01 x23
+0 x24
+0.050000000000000003 x25
+0 x26
+0 x27
+0 x28
+0 x29

s.t.

c_e_x35_:
-1 x21
+1 x4
= 0

c_e_x36_:
-1 x23
+1 x6
= 0

c_e_x37_:
+1 x2
-1 x25
= 0

c_e_x38_:
+1 x30
= 0

c_e_x39_:
+1 x31
= 0

c_e_x40_:
+1 x32
= 0

c_e_x41_:
+1 x33
= 0

c_e_x42_:
+1 x1
= 0

c_e_x43_:
+1 x8
= 0

c_e_x44_:
+1 x5
= 0

c_e_x45_:
+1 x9
= 0

c_e_x46_:
+1 x26
= 1000

c_e_x47_:
-1 x26
+1 x3
= 0

c_e_x48_:
+1 x22
-1 x24
+1 x28
+1 x29
= 0

c_e_x49_:
-1 x26
+1 x27
= 0

c_e_x50_:
+1 x10
-1 x22
-1 x28
-1 x29
= 0

c_e_x51_:
-1 x27
+1 x7
= 0

c_u_x52_:
+1 x1
+ [
-1 x1 * x11
]
<= 0

c_u_x53_:
+1 x2
+ [
-1 x12 * x2
]
<= 0

c_u_x54_:
+1 x3
+ [
-1 x13 * x3
]
<= 0

c_u_x55_:
+1 x4
+ [
-1 x14 * x4
]
<= 0

c_u_x56_:
+1 x5
+ [
-1 x15 * x5
]
<= 0

c_u_x57_:
+1 x6
+ [
-1 x16 * x6
]
<= 0

c_u_x58_:
+1 x7
+ [
-1 x17 * x7
]
<= 0

c_u_x59_:
+1 x8
+ [
-1 x18 * x8
]
<= 0

c_u_x60_:
+1 x9
+ [
-1 x19 * x9
]
<= 0

c_u_x61_:
+1 x10
+ [
-1 x10 * x20
]
<= 0

c_u_x62_:
+0.040000000000000001 x21
+0 x22
+0.073200000000000001 x23
+0 x24
+0 x25
+0 x26
+0 x27
+0 x28
+0 x29
<= 40

c_e_ONE_VAR_CONSTANT: 
ONE_VAR_CONSTANT = 1.0

bounds
   0 <= x1 <= +inf
   0 <= x2 <= +inf
   0 <= x3 <= +inf
   0 <= x4 <= +inf
   0 <= x5 <= +inf
   0 <= x6 <= +inf
   0 <= x7 <= +inf
   0 <= x8 <= +inf
   0 <= x9 <= +inf
   0 <= x10 <= +inf
   0 <= x11 <= 1
   0 <= x12 <= 1
   0 <= x13 <= 1
   0 <= x14 <= 1
   0 <= x15 <= 1
   0 <= x16 <= 1
   0 <= x17 <= 1
   0 <= x18 <= 1
   0 <= x19 <= 1
   0 <= x20 <= 1
   0 <= x21 <= +inf
   0 <= x22 <= +inf
   0 <= x23 <= +inf
   0 <= x24 <= +inf
   0 <= x25 <= +inf
   0 <= x26 <= +inf
   0 <= x27 <= +inf
   0 <= x28 <= +inf
   0 <= x29 <= +inf
   0 <= x30 <= +inf
   0 <= x31 <= +inf
   0 <= x32 <= +inf
   0 <= x33 <= +inf
binary
  x11
  x12
  x13
  x14
  x15
  x16
  x17
  x18
  x19
  x20
end
